c File: flat30_3_0.col
c
c SOURCE: Joseph Culberson (joe@cs.ualberta.ca)
c DESCRIPTION: Quasi-random coloring problem
c              generated with flatness = 0
c                             probability = 0.200
c                             known coloring = 3
c                             random seed = 247649
c              Creation Date:  Fri Nov 29 22:02:47 1996
c Maximum degree = 6 Minimum degree = 1
c
c cnf created by edge2cnf
p cnf 90 300
-1 -2 0
-1 -3 0
-2 -3 0
1 2 3 0
-4 -5 0
-4 -6 0
-5 -6 0
4 5 6 0
-7 -8 0
-7 -9 0
-8 -9 0
7 8 9 0
-10 -11 0
-10 -12 0
-11 -12 0
10 11 12 0
-13 -14 0
-13 -15 0
-14 -15 0
13 14 15 0
-16 -17 0
-16 -18 0
-17 -18 0
16 17 18 0
-19 -20 0
-19 -21 0
-20 -21 0
19 20 21 0
-22 -23 0
-22 -24 0
-23 -24 0
22 23 24 0
-25 -26 0
-25 -27 0
-26 -27 0
25 26 27 0
-28 -29 0
-28 -30 0
-29 -30 0
28 29 30 0
-31 -32 0
-31 -33 0
-32 -33 0
31 32 33 0
-34 -35 0
-34 -36 0
-35 -36 0
34 35 36 0
-37 -38 0
-37 -39 0
-38 -39 0
37 38 39 0
-40 -41 0
-40 -42 0
-41 -42 0
40 41 42 0
-43 -44 0
-43 -45 0
-44 -45 0
43 44 45 0
-46 -47 0
-46 -48 0
-47 -48 0
46 47 48 0
-49 -50 0
-49 -51 0
-50 -51 0
49 50 51 0
-52 -53 0
-52 -54 0
-53 -54 0
52 53 54 0
-55 -56 0
-55 -57 0
-56 -57 0
55 56 57 0
-58 -59 0
-58 -60 0
-59 -60 0
58 59 60 0
-61 -62 0
-61 -63 0
-62 -63 0
61 62 63 0
-64 -65 0
-64 -66 0
-65 -66 0
64 65 66 0
-67 -68 0
-67 -69 0
-68 -69 0
67 68 69 0
-70 -71 0
-70 -72 0
-71 -72 0
70 71 72 0
-73 -74 0
-73 -75 0
-74 -75 0
73 74 75 0
-76 -77 0
-76 -78 0
-77 -78 0
76 77 78 0
-79 -80 0
-79 -81 0
-80 -81 0
79 80 81 0
-82 -83 0
-82 -84 0
-83 -84 0
82 83 84 0
-85 -86 0
-85 -87 0
-86 -87 0
85 86 87 0
-88 -89 0
-88 -90 0
-89 -90 0
88 89 90 0
-31 -1 0
-32 -2 0
-33 -3 0
-46 -1 0
-47 -2 0
-48 -3 0
-52 -1 0
-53 -2 0
-54 -3 0
-73 -1 0
-74 -2 0
-75 -3 0
-34 -4 0
-35 -5 0
-36 -6 0
-55 -4 0
-56 -5 0
-57 -6 0
-76 -4 0
-77 -5 0
-78 -6 0
-79 -4 0
-80 -5 0
-81 -6 0
-85 -4 0
-86 -5 0
-87 -6 0
-37 -7 0
-38 -8 0
-39 -9 0
-58 -7 0
-59 -8 0
-60 -9 0
-67 -7 0
-68 -8 0
-69 -9 0
-70 -7 0
-71 -8 0
-72 -9 0
-76 -7 0
-77 -8 0
-78 -9 0
-46 -10 0
-47 -11 0
-48 -12 0
-49 -10 0
-50 -11 0
-51 -12 0
-64 -10 0
-65 -11 0
-66 -12 0
-37 -13 0
-38 -14 0
-39 -15 0
-40 -13 0
-41 -14 0
-42 -15 0
-55 -13 0
-56 -14 0
-57 -15 0
-70 -13 0
-71 -14 0
-72 -15 0
-88 -13 0
-89 -14 0
-90 -15 0
-40 -16 0
-41 -17 0
-42 -18 0
-46 -16 0
-47 -17 0
-48 -18 0
-55 -16 0
-56 -17 0
-57 -18 0
-61 -16 0
-62 -17 0
-63 -18 0
-70 -16 0
-71 -17 0
-72 -18 0
-88 -16 0
-89 -17 0
-90 -18 0
-34 -19 0
-35 -20 0
-36 -21 0
-64 -19 0
-65 -20 0
-66 -21 0
-58 -22 0
-59 -23 0
-60 -24 0
-73 -22 0
-74 -23 0
-75 -24 0
-79 -22 0
-80 -23 0
-81 -24 0
-82 -22 0
-83 -23 0
-84 -24 0
-43 -25 0
-44 -26 0
-45 -27 0
-67 -25 0
-68 -26 0
-69 -27 0
-37 -28 0
-38 -29 0
-39 -30 0
-49 -28 0
-50 -29 0
-51 -30 0
-82 -28 0
-83 -29 0
-84 -30 0
-85 -28 0
-86 -29 0
-87 -30 0
-70 -31 0
-71 -32 0
-72 -33 0
-79 -31 0
-80 -32 0
-81 -33 0
-85 -31 0
-86 -32 0
-87 -33 0
-61 -34 0
-62 -35 0
-63 -36 0
-64 -34 0
-65 -35 0
-66 -36 0
-82 -34 0
-83 -35 0
-84 -36 0
-76 -37 0
-77 -38 0
-78 -39 0
-88 -37 0
-89 -38 0
-90 -39 0
-70 -40 0
-71 -41 0
-72 -42 0
-79 -40 0
-80 -41 0
-81 -42 0
-85 -46 0
-86 -47 0
-87 -48 0
-61 -49 0
-62 -50 0
-63 -51 0
-79 -49 0
-80 -50 0
-81 -51 0
-88 -49 0
-89 -50 0
-90 -51 0
-67 -55 0
-68 -56 0
-69 -57 0
-76 -55 0
-77 -56 0
-78 -57 0
-85 -55 0
-86 -56 0
-87 -57 0
-73 -58 0
-74 -59 0
-75 -60 0
-82 -58 0
-83 -59 0
-84 -60 0
-88 -58 0
-89 -59 0
-90 -60 0
